p cnf 430 1488
-191 -140 0
-191 131 0
-191 72 0
-191 23 0
-191 67 0
191 140 -131 -72 -23 -67 0
-192 -12 0
-192 -59 0
-192 -80 0
-192 -151 0
-192 -29 0
192 12 59 80 151 29 0
-193 48 0
-193 185 0
-193 30 0
-193 166 0
-193 121 0
193 -48 -185 -30 -166 -121 0
-194 -10 0
-194 183 0
-194 71 0
-194 -14 0
-194 98 0
194 10 -183 -71 14 -98 0
-195 -21 0
-195 100 0
-195 -158 0
-195 58 0
-195 -25 0
195 21 -100 158 -58 25 0
191 192 193 194 195 0
-196 -20 0
-196 -39 0
-196 -38 0
-196 -75 0
-196 -128 0
196 20 39 38 75 128 0
-197 64 0
-197 62 0
-197 159 0
-197 171 0
-197 128 0
197 -64 -62 -159 -171 -128 0
-198 -156 0
-198 32 0
-198 3 0
-198 129 0
-198 144 0
198 156 -32 -3 -129 -144 0
-199 -155 0
-199 -105 0
-199 -36 0
-199 -12 0
-199 -177 0
199 155 105 36 12 177 0
-200 43 0
-200 18 0
-200 135 0
-200 -96 0
-200 -88 0
200 -43 -18 -135 96 88 0
196 197 198 199 200 0
-201 -80 0
-201 -10 0
-201 22 0
-201 -71 0
-201 -79 0
201 80 10 -22 71 79 0
-202 -48 0
-202 -69 0
-202 127 0
-202 -56 0
-202 161 0
202 48 69 -127 56 -161 0
-203 -88 0
-203 6 0
-203 -7 0
-203 84 0
-203 4 0
203 88 -6 7 -84 -4 0
-204 -74 0
-204 163 0
-204 42 0
-204 173 0
-204 -169 0
204 74 -163 -42 -173 169 0
-205 -82 0
-205 187 0
-205 95 0
-205 74 0
-205 34 0
205 82 -187 -95 -74 -34 0
201 202 203 204 205 0
-206 -108 0
-206 14 0
-206 -158 0
-206 -153 0
-206 -65 0
206 108 -14 158 153 65 0
-207 5 0
-207 59 0
-207 16 0
-207 -45 0
-207 -26 0
207 -5 -59 -16 45 26 0
-208 140 0
-208 13 0
-208 -83 0
-208 97 0
-208 39 0
208 -140 -13 83 -97 -39 0
-209 177 0
-209 1 0
-209 -119 0
-209 -100 0
-209 -184 0
209 -177 -1 119 100 184 0
-210 -176 0
-210 22 0
-210 -11 0
-210 183 0
-210 -107 0
210 176 -22 11 -183 107 0
206 207 208 209 210 0
-211 -48 0
-211 -12 0
-211 -70 0
-211 57 0
-211 88 0
211 48 12 70 -57 -88 0
-212 -87 0
-212 -17 0
-212 -23 0
-212 82 0
-212 70 0
212 87 17 23 -82 -70 0
-213 47 0
-213 58 0
-213 147 0
-213 -152 0
-213 -101 0
213 -47 -58 -147 152 101 0
-214 -135 0
-214 -157 0
-214 137 0
-214 126 0
-214 -151 0
214 135 157 -137 -126 151 0
-215 -144 0
-215 28 0
-215 -3 0
-215 165 0
-215 -174 0
215 144 -28 3 -165 174 0
211 212 213 214 215 0
-216 -141 0
-216 -144 0
-216 24 0
-216 100 0
-216 108 0
216 141 144 -24 -100 -108 0
-217 179 0
-217 -27 0
-217 138 0
-217 30 0
-217 -63 0
217 -179 27 -138 -30 63 0
-218 82 0
-218 122 0
-218 157 0
-218 138 0
-218 -86 0
218 -82 -122 -157 -138 86 0
-219 -146 0
-219 -133 0
-219 91 0
-219 -54 0
-219 -81 0
219 146 133 -91 54 81 0
-220 37 0
-220 -190 0
-220 158 0
-220 113 0
-220 -141 0
220 -37 190 -158 -113 141 0
216 217 218 219 220 0
-221 65 0
-221 -23 0
-221 75 0
-221 -78 0
-221 -154 0
221 -65 23 -75 78 154 0
-222 -168 0
-222 -44 0
-222 -5 0
-222 -66 0
-222 69 0
222 168 44 5 66 -69 0
-223 82 0
-223 -4 0
-223 -104 0
-223 141 0
-223 168 0
223 -82 4 104 -141 -168 0
-224 186 0
-224 -149 0
-224 -165 0
-224 -14 0
-224 -62 0
224 -186 149 165 14 62 0
-225 181 0
-225 -14 0
-225 -71 0
-225 -112 0
-225 127 0
225 -181 14 71 112 -127 0
221 222 223 224 225 0
-226 17 0
-226 -91 0
-226 183 0
-226 -5 0
-226 75 0
226 -17 91 -183 5 -75 0
-227 49 0
-227 163 0
-227 41 0
-227 -157 0
-227 90 0
227 -49 -163 -41 157 -90 0
-228 -52 0
-228 -19 0
-228 13 0
-228 94 0
-228 -119 0
228 52 19 -13 -94 119 0
-229 -65 0
-229 60 0
-229 -44 0
-229 -50 0
-229 123 0
229 65 -60 44 50 -123 0
-230 62 0
-230 101 0
-230 -12 0
-230 -107 0
-230 73 0
230 -62 -101 12 107 -73 0
226 227 228 229 230 0
-231 111 0
-231 128 0
-231 -122 0
-231 -174 0
-231 94 0
231 -111 -128 122 174 -94 0
-232 -151 0
-232 61 0
-232 -129 0
-232 -135 0
-232 -43 0
232 151 -61 129 135 43 0
-233 -2 0
-233 53 0
-233 71 0
-233 -55 0
-233 -143 0
233 2 -53 -71 55 143 0
-234 -12 0
-234 149 0
-234 -34 0
-234 -137 0
-234 54 0
234 12 -149 34 137 -54 0
-235 -77 0
-235 30 0
-235 167 0
-235 143 0
-235 -10 0
235 77 -30 -167 -143 10 0
231 232 233 234 235 0
-236 -180 0
-236 -27 0
-236 19 0
-236 -21 0
-236 -159 0
236 180 27 -19 21 159 0
-237 -72 0
-237 106 0
-237 -27 0
-237 19 0
-237 20 0
237 72 -106 27 -19 -20 0
-238 100 0
-238 -83 0
-238 -179 0
-238 -33 0
-238 52 0
238 -100 83 179 33 -52 0
-239 17 0
-239 132 0
-239 -103 0
-239 -93 0
-239 164 0
239 -17 -132 103 93 -164 0
-240 -94 0
-240 -38 0
-240 -103 0
-240 142 0
-240 -139 0
240 94 38 103 -142 139 0
236 237 238 239 240 0
-241 53 0
-241 -9 0
-241 10 0
-241 144 0
-241 95 0
241 -53 9 -10 -144 -95 0
-242 -113 0
-242 -120 0
-242 -47 0
-242 -140 0
-242 180 0
242 113 120 47 140 -180 0
-243 -129 0
-243 -2 0
-243 107 0
-243 -109 0
-243 151 0
243 129 2 -107 109 -151 0
-244 98 0
-244 163 0
-244 45 0
-244 -129 0
-244 115 0
244 -98 -163 -45 129 -115 0
-245 -181 0
-245 179 0
-245 -103 0
-245 -73 0
-245 -26 0
245 181 -179 103 73 26 0
241 242 243 244 245 0
-246 -103 0
-246 -106 0
-246 4 0
-246 140 0
-246 64 0
246 103 106 -4 -140 -64 0
-247 -131 0
-247 60 0
-247 -78 0
-247 -17 0
-247 -82 0
247 131 -60 78 17 82 0
-248 44 0
-248 142 0
-248 187 0
-248 -98 0
-248 -140 0
248 -44 -142 -187 98 140 0
-249 -21 0
-249 155 0
-249 84 0
-249 -85 0
-249 -131 0
249 21 -155 -84 85 131 0
-250 175 0
-250 -160 0
-250 169 0
-250 -130 0
-250 64 0
250 -175 160 -169 130 -64 0
246 247 248 249 250 0
-251 -161 0
-251 22 0
-251 -172 0
-251 -74 0
-251 -9 0
251 161 -22 172 74 9 0
-252 140 0
-252 -70 0
-252 175 0
-252 95 0
-252 -16 0
252 -140 70 -175 -95 16 0
-253 98 0
-253 42 0
-253 36 0
-253 109 0
-253 -35 0
253 -98 -42 -36 -109 35 0
-254 -57 0
-254 75 0
-254 -103 0
-254 -82 0
-254 126 0
254 57 -75 103 82 -126 0
-255 185 0
-255 -184 0
-255 17 0
-255 95 0
-255 -22 0
255 -185 184 -17 -95 22 0
251 252 253 254 255 0
-256 175 0
-256 120 0
-256 -128 0
-256 -57 0
-256 119 0
256 -175 -120 128 57 -119 0
-257 116 0
-257 185 0
-257 151 0
-257 -175 0
-257 34 0
257 -116 -185 -151 175 -34 0
-258 -160 0
-258 -79 0
-258 77 0
-258 98 0
-258 106 0
258 160 79 -77 -98 -106 0
-259 -132 0
-259 137 0
-259 -134 0
-259 126 0
-259 70 0
259 132 -137 134 -126 -70 0
-260 164 0
-260 -31 0
-260 126 0
-260 -39 0
-260 -23 0
260 -164 31 -126 39 23 0
256 257 258 259 260 0
-261 21 0
-261 -112 0
-261 -139 0
-261 -153 0
-261 -14 0
261 -21 112 139 153 14 0
-262 -87 0
-262 -30 0
-262 118 0
-262 -187 0
-262 -115 0
262 87 30 -118 187 115 0
-263 138 0
-263 162 0
-263 -68 0
-263 -64 0
-263 52 0
263 -138 -162 68 64 -52 0
-264 -119 0
-264 -105 0
-264 -138 0
-264 -95 0
-264 -6 0
264 119 105 138 95 6 0
-265 -46 0
-265 9 0
-265 61 0
-265 -176 0
-265 34 0
265 46 -9 -61 176 -34 0
261 262 263 264 265 0
-266 -59 0
-266 122 0
-266 25 0
-266 -29 0
-266 2 0
266 59 -122 -25 29 -2 0
-267 -128 0
-267 -189 0
-267 -190 0
-267 -80 0
-267 -12 0
267 128 189 190 80 12 0
-268 -112 0
-268 143 0
-268 161 0
-268 -39 0
-268 -103 0
268 112 -143 -161 39 103 0
-269 -116 0
-269 -49 0
-269 104 0
-269 188 0
-269 -5 0
269 116 49 -104 -188 5 0
-270 119 0
-270 -189 0
-270 171 0
-270 16 0
-270 -70 0
270 -119 189 -171 -16 70 0
266 267 268 269 270 0
-271 82 0
-271 -10 0
-271 165 0
-271 161 0
-271 114 0
271 -82 10 -165 -161 -114 0
-272 -109 0
-272 51 0
-272 122 0
-272 -15 0
-272 -7 0
272 109 -51 -122 15 7 0
-273 153 0
-273 81 0
-273 173 0
-273 86 0
-273 -155 0
273 -153 -81 -173 -86 155 0
-274 -137 0
-274 125 0
-274 131 0
-274 -183 0
-274 64 0
274 137 -125 -131 183 -64 0
-275 114 0
-275 163 0
-275 -136 0
-275 -109 0
-275 -145 0
275 -114 -163 136 109 145 0
271 272 273 274 275 0
-276 -64 0
-276 -167 0
-276 75 0
-276 -190 0
-276 -100 0
276 64 167 -75 190 100 0
-277 -152 0
-277 2 0
-277 125 0
-277 18 0
-277 92 0
277 152 -2 -125 -18 -92 0
-278 58 0
-278 142 0
-278 -178 0
-278 46 0
-278 -45 0
278 -58 -142 178 -46 45 0
-279 38 0
-279 180 0
-279 99 0
-279 -84 0
-279 161 0
279 -38 -180 -99 84 -161 0
-280 -79 0
-280 9 0
-280 78 0
-280 -158 0
-280 101 0
280 79 -9 -78 158 -101 0
276 277 278 279 280 0
-281 167 0
-281 170 0
-281 78 0
-281 -150 0
-281 173 0
281 -167 -170 -78 150 -173 0
-282 -14 0
-282 -67 0
-282 -5 0
-282 -19 0
-282 -18 0
282 14 67 5 19 18 0
-283 162 0
-283 -74 0
-283 99 0
-283 53 0
-283 -44 0
283 -162 74 -99 -53 44 0
-284 -46 0
-284 -149 0
-284 -175 0
-284 23 0
-284 -75 0
284 46 149 175 -23 75 0
-285 83 0
-285 -62 0
-285 58 0
-285 45 0
-285 2 0
285 -83 62 -58 -45 -2 0
281 282 283 284 285 0
-286 -46 0
-286 -51 0
-286 47 0
-286 -61 0
-286 136 0
286 46 51 -47 61 -136 0
-287 21 0
-287 -87 0
-287 -138 0
-287 -179 0
-287 -19 0
287 -21 87 138 179 19 0
-288 -171 0
-288 -53 0
-288 150 0
-288 -126 0
-288 65 0
288 171 53 -150 126 -65 0
-289 -149 0
-289 109 0
-289 -104 0
-289 127 0
-289 -142 0
289 149 -109 104 -127 142 0
-290 -178 0
-290 -156 0
-290 -73 0
-290 -33 0
-290 75 0
290 178 156 73 33 -75 0
286 287 288 289 290 0
-291 -2 0
-291 58 0
-291 -42 0
-291 -28 0
-291 156 0
291 2 -58 42 28 -156 0
-292 -173 0
-292 -101 0
-292 63 0
-292 116 0
-292 -65 0
292 173 101 -63 -116 65 0
-293 40 0
-293 -72 0
-293 -58 0
-293 158 0
-293 -73 0
293 -40 72 58 -158 73 0
-294 -127 0
-294 -85 0
-294 134 0
-294 -18 0
-294 132 0
294 127 85 -134 18 -132 0
-295 12 0
-295 -98 0
-295 -120 0
-295 32 0
-295 -88 0
295 -12 98 120 -32 88 0
291 292 293 294 295 0
-296 -163 0
-296 -25 0
-296 23 0
-296 -26 0
-296 22 0
296 163 25 -23 26 -22 0
-297 -84 0
-297 -135 0
-297 -91 0
-297 -136 0
-297 -86 0
297 84 135 91 136 86 0
-298 1 0
-298 -24 0
-298 -180 0
-298 -68 0
-298 -90 0
298 -1 24 180 68 90 0
-299 178 0
-299 -35 0
-299 -188 0
-299 -132 0
-299 91 0
299 -178 35 188 132 -91 0
-300 116 0
-300 -91 0
-300 -123 0
-300 -61 0
-300 131 0
300 -116 91 123 61 -131 0
296 297 298 299 300 0
-301 -190 0
-301 77 0
-301 150 0
-301 -147 0
-301 -170 0
301 190 -77 -150 147 170 0
-302 16 0
-302 83 0
-302 112 0
-302 60 0
-302 69 0
302 -16 -83 -112 -60 -69 0
-303 -36 0
-303 -33 0
-303 -1 0
-303 -181 0
-303 182 0
303 36 33 1 181 -182 0
-304 58 0
-304 -137 0
-304 35 0
-304 111 0
-304 -64 0
304 -58 137 -35 -111 64 0
-305 -116 0
-305 -85 0
-305 -179 0
-305 169 0
-305 -181 0
305 116 85 179 -169 181 0
301 302 303 304 305 0
-306 -142 0
-306 -118 0
-306 -12 0
-306 -46 0
-306 165 0
306 142 118 12 46 -165 0
-307 84 0
-307 146 0
-307 -49 0
-307 137 0
-307 161 0
307 -84 -146 49 -137 -161 0
-308 -82 0
-308 64 0
-308 135 0
-308 -69 0
-308 -101 0
308 82 -64 -135 69 101 0
-309 -83 0
-309 -21 0
-309 -84 0
-309 167 0
-309 -17 0
309 83 21 84 -167 17 0
-310 -119 0
-310 -64 0
-310 133 0
-310 139 0
-310 160 0
310 119 64 -133 -139 -160 0
306 307 308 309 310 0
-311 71 0
-311 109 0
-311 -48 0
-311 -59 0
-311 -96 0
311 -71 -109 48 59 96 0
-312 107 0
-312 69 0
-312 154 0
-312 -21 0
-312 10 0
312 -107 -69 -154 21 -10 0
-313 -70 0
-313 98 0
-313 -16 0
-313 105 0
-313 -27 0
313 70 -98 16 -105 27 0
-314 52 0
-314 -189 0
-314 -72 0
-314 -91 0
-314 -128 0
314 -52 189 72 91 128 0
-315 119 0
-315 123 0
-315 76 0
-315 -180 0
-315 -70 0
315 -119 -123 -76 180 70 0
311 312 313 314 315 0
-316 60 0
-316 28 0
-316 -62 0
-316 -5 0
-316 -172 0
316 -60 -28 62 5 172 0
-317 158 0
-317 187 0
-317 -130 0
-317 92 0
-317 -162 0
317 -158 -187 130 -92 162 0
-318 -50 0
-318 -174 0
-318 5 0
-318 65 0
-318 145 0
318 50 174 -5 -65 -145 0
-319 -131 0
-319 -84 0
-319 95 0
-319 -151 0
-319 -172 0
319 131 84 -95 151 172 0
-320 -33 0
-320 -21 0
-320 -64 0
-320 -115 0
-320 72 0
320 33 21 64 115 -72 0
316 317 318 319 320 0
-321 69 0
-321 50 0
-321 -40 0
-321 4 0
-321 122 0
321 -69 -50 40 -4 -122 0
-322 -54 0
-322 23 0
-322 103 0
-322 137 0
-322 37 0
322 54 -23 -103 -137 -37 0
-323 128 0
-323 62 0
-323 -161 0
-323 118 0
-323 40 0
323 -128 -62 161 -118 -40 0
-324 -102 0
-324 138 0
-324 -76 0
-324 -185 0
-324 -108 0
324 102 -138 76 185 108 0
-325 -166 0
-325 -10 0
-325 25 0
-325 105 0
-325 148 0
325 166 10 -25 -105 -148 0
321 322 323 324 325 0
-326 162 0
-326 88 0
-326 164 0
-326 118 0
-326 17 0
326 -162 -88 -164 -118 -17 0
-327 136 0
-327 -138 0
-327 17 0
-327 -29 0
-327 -164 0
327 -136 138 -17 29 164 0
-328 -39 0
-328 -113 0
-328 74 0
-328 -179 0
-328 76 0
328 39 113 -74 179 -76 0
-329 -12 0
-329 -52 0
-329 -53 0
-329 187 0
-329 100 0
329 12 52 53 -187 -100 0
-330 2 0
-330 -164 0
-330 83 0
-330 -27 0
-330 -138 0
330 -2 164 -83 27 138 0
326 327 328 329 330 0
-331 -72 0
-331 -165 0
-331 45 0
-331 52 0
-331 -2 0
331 72 165 -45 -52 2 0
-332 93 0
-332 120 0
-332 76 0
-332 13 0
-332 -107 0
332 -93 -120 -76 -13 107 0
-333 31 0
-333 -148 0
-333 -111 0
-333 -97 0
-333 -78 0
333 -31 148 111 97 78 0
-334 -10 0
-334 -185 0
-334 82 0
-334 178 0
-334 -25 0
334 10 185 -82 -178 25 0
-335 69 0
-335 76 0
-335 -139 0
-335 -28 0
-335 -32 0
335 -69 -76 139 28 32 0
331 332 333 334 335 0
-336 -19 0
-336 117 0
-336 -151 0
-336 70 0
-336 -137 0
336 19 -117 151 -70 137 0
-337 82 0
-337 -70 0
-337 22 0
-337 -110 0
-337 167 0
337 -82 70 -22 110 -167 0
-338 -129 0
-338 79 0
-338 169 0
-338 149 0
-338 -17 0
338 129 -79 -169 -149 17 0
-339 -127 0
-339 115 0
-339 -43 0
-339 -150 0
-339 187 0
339 127 -115 43 150 -187 0
-340 -110 0
-340 18 0
-340 -156 0
-340 -176 0
-340 -182 0
340 110 -18 156 176 182 0
336 337 338 339 340 0
-341 -98 0
-341 46 0
-341 23 0
-341 172 0
-341 146 0
341 98 -46 -23 -172 -146 0
-342 82 0
-342 10 0
-342 -154 0
-342 -22 0
-342 13 0
342 -82 -10 154 22 -13 0
-343 8 0
-343 -130 0
-343 -170 0
-343 55 0
-343 63 0
343 -8 130 170 -55 -63 0
-344 126 0
-344 171 0
-344 34 0
-344 -133 0
-344 25 0
344 -126 -171 -34 133 -25 0
-345 2 0
-345 -101 0
-345 157 0
-345 75 0
-345 -44 0
345 -2 101 -157 -75 44 0
341 342 343 344 345 0
-346 99 0
-346 160 0
-346 -143 0
-346 151 0
-346 -16 0
346 -99 -160 143 -151 16 0
-347 -10 0
-347 180 0
-347 -51 0
-347 42 0
-347 -135 0
347 10 -180 51 -42 135 0
-348 92 0
-348 -81 0
-348 147 0
-348 76 0
-348 -124 0
348 -92 81 -147 -76 124 0
-349 -3 0
-349 -28 0
-349 -178 0
-349 -118 0
-349 -15 0
349 3 28 178 118 15 0
-350 -82 0
-350 158 0
-350 60 0
-350 -66 0
-350 -168 0
350 82 -158 -60 66 168 0
346 347 348 349 350 0
-351 16 0
-351 21 0
-351 -8 0
-351 106 0
-351 92 0
351 -16 -21 8 -106 -92 0
-352 -83 0
-352 133 0
-352 -86 0
-352 -149 0
-352 -101 0
352 83 -133 86 149 101 0
-353 -54 0
-353 62 0
-353 -78 0
-353 -58 0
-353 165 0
353 54 -62 78 58 -165 0
-354 -156 0
-354 101 0
-354 -167 0
-354 99 0
-354 102 0
354 156 -101 167 -99 -102 0
-355 136 0
-355 37 0
-355 -16 0
-355 -32 0
-355 -59 0
355 -136 -37 16 32 59 0
351 352 353 354 355 0
-356 72 0
-356 -104 0
-356 32 0
-356 -43 0
-356 -129 0
356 -72 104 -32 43 129 0
-357 -150 0
-357 160 0
-357 107 0
-357 144 0
-357 23 0
357 150 -160 -107 -144 -23 0
-358 89 0
-358 141 0
-358 150 0
-358 -99 0
-358 -74 0
358 -89 -141 -150 99 74 0
-359 125 0
-359 -31 0
-359 23 0
-359 53 0
-359 181 0
359 -125 31 -23 -53 -181 0
-360 51 0
-360 -61 0
-360 50 0
-360 -135 0
-360 150 0
360 -51 61 -50 135 -150 0
356 357 358 359 360 0
-361 80 0
-361 83 0
-361 -33 0
-361 162 0
-361 -172 0
361 -80 -83 33 -162 172 0
-362 116 0
-362 -188 0
-362 -78 0
-362 -64 0
-362 126 0
362 -116 188 78 64 -126 0
-363 116 0
-363 70 0
-363 182 0
-363 71 0
-363 -167 0
363 -116 -70 -182 -71 167 0
-364 104 0
-364 -112 0
-364 107 0
-364 -171 0
-364 -173 0
364 -104 112 -107 171 173 0
-365 65 0
-365 38 0
-365 52 0
-365 91 0
-365 -20 0
365 -65 -38 -52 -91 20 0
361 362 363 364 365 0
-366 -80 0
-366 -150 0
-366 -96 0
-366 47 0
-366 -29 0
366 80 150 96 -47 29 0
-367 -152 0
-367 125 0
-367 26 0
-367 -43 0
-367 -88 0
367 152 -125 -26 43 88 0
-368 -28 0
-368 -150 0
-368 -36 0
-368 -49 0
-368 -114 0
368 28 150 36 49 114 0
-369 -163 0
-369 -50 0
-369 55 0
-369 45 0
-369 151 0
369 163 50 -55 -45 -151 0
-370 30 0
-370 81 0
-370 -40 0
-370 -53 0
-370 -28 0
370 -30 -81 40 53 28 0
366 367 368 369 370 0
-371 175 0
-371 140 0
-371 95 0
-371 43 0
-371 54 0
371 -175 -140 -95 -43 -54 0
-372 -8 0
-372 185 0
-372 -33 0
-372 -109 0
-372 -128 0
372 8 -185 33 109 128 0
-373 43 0
-373 104 0
-373 89 0
-373 -97 0
-373 109 0
373 -43 -104 -89 97 -109 0
-374 58 0
-374 -146 0
-374 11 0
-374 165 0
-374 50 0
374 -58 146 -11 -165 -50 0
-375 120 0
-375 -168 0
-375 -18 0
-375 -74 0
-375 39 0
375 -120 168 18 74 -39 0
371 372 373 374 375 0
-376 185 0
-376 160 0
-376 128 0
-376 102 0
-376 62 0
376 -185 -160 -128 -102 -62 0
-377 -184 0
-377 -127 0
-377 -79 0
-377 21 0
-377 -55 0
377 184 127 79 -21 55 0
-378 10 0
-378 171 0
-378 -143 0
-378 87 0
-378 64 0
378 -10 -171 143 -87 -64 0
-379 -110 0
-379 51 0
-379 -101 0
-379 126 0
-379 -167 0
379 110 -51 101 -126 167 0
-380 179 0
-380 -61 0
-380 123 0
-380 49 0
-380 -145 0
380 -179 61 -123 -49 145 0
376 377 378 379 380 0
-381 111 0
-381 118 0
-381 113 0
-381 80 0
-381 92 0
381 -111 -118 -113 -80 -92 0
-382 -129 0
-382 70 0
-382 15 0
-382 -60 0
-382 -155 0
382 129 -70 -15 60 155 0
-383 -132 0
-383 143 0
-383 69 0
-383 -164 0
-383 -121 0
383 132 -143 -69 164 121 0
-384 187 0
-384 -124 0
-384 18 0
-384 -140 0
-384 165 0
384 -187 124 -18 140 -165 0
-385 45 0
-385 -169 0
-385 -31 0
-385 10 0
-385 -134 0
385 -45 169 31 -10 134 0
381 382 383 384 385 0
-386 -102 0
-386 -139 0
-386 -81 0
-386 132 0
-386 -26 0
386 102 139 81 -132 26 0
-387 -153 0
-387 -48 0
-387 -160 0
-387 116 0
-387 19 0
387 153 48 160 -116 -19 0
-388 -49 0
-388 3 0
-388 -142 0
-388 120 0
-388 43 0
388 49 -3 142 -120 -43 0
-389 60 0
-389 40 0
-389 -54 0
-389 -103 0
-389 46 0
389 -60 -40 54 103 -46 0
-390 151 0
-390 20 0
-390 17 0
-390 1 0
-390 -165 0
390 -151 -20 -17 -1 165 0
386 387 388 389 390 0
-391 -127 0
-391 -123 0
-391 181 0
-391 14 0
-391 37 0
391 127 123 -181 -14 -37 0
-392 -88 0
-392 58 0
-392 147 0
-392 -74 0
-392 -144 0
392 88 -58 -147 74 144 0
-393 90 0
-393 93 0
-393 -125 0
-393 -154 0
-393 7 0
393 -90 -93 125 154 -7 0
-394 -57 0
-394 -165 0
-394 95 0
-394 90 0
-394 149 0
394 57 165 -95 -90 -149 0
-395 114 0
-395 40 0
-395 63 0
-395 -188 0
-395 138 0
395 -114 -40 -63 188 -138 0
391 392 393 394 395 0
-396 -166 0
-396 107 0
-396 109 0
-396 -4 0
-396 169 0
396 166 -107 -109 4 -169 0
-397 -68 0
-397 146 0
-397 -139 0
-397 -59 0
-397 -119 0
397 68 -146 139 59 119 0
-398 128 0
-398 14 0
-398 -166 0
-398 -95 0
-398 -33 0
398 -128 -14 166 95 33 0
-399 155 0
-399 111 0
-399 35 0
-399 77 0
-399 -86 0
399 -155 -111 -35 -77 86 0
-400 -51 0
-400 -169 0
-400 -4 0
-400 77 0
-400 -40 0
400 51 169 4 -77 40 0
396 397 398 399 400 0
-401 -121 0
-401 -135 0
-401 -167 0
-401 35 0
-401 -176 0
401 121 135 167 -35 176 0
-402 131 0
-402 8 0
-402 123 0
-402 1 0
-402 109 0
402 -131 -8 -123 -1 -109 0
-403 87 0
-403 -63 0
-403 -27 0
-403 72 0
-403 -174 0
403 -87 63 27 -72 174 0
-404 107 0
-404 111 0
-404 -126 0
-404 -103 0
-404 61 0
404 -107 -111 126 103 -61 0
-405 -98 0
-405 -54 0
-405 138 0
-405 57 0
-405 -38 0
405 98 54 -138 -57 38 0
401 402 403 404 405 0
-406 -9 0
-406 1 0
-406 -3 0
-406 -96 0
-406 -100 0
406 9 -1 3 96 100 0
-407 104 0
-407 57 0
-407 -140 0
-407 -138 0
-407 -52 0
407 -104 -57 140 138 52 0
-408 -21 0
-408 -95 0
-408 -127 0
-408 -155 0
-408 92 0
408 21 95 127 155 -92 0
-409 16 0
-409 23 0
-409 29 0
-409 96 0
-409 180 0
409 -16 -23 -29 -96 -180 0
-410 -27 0
-410 179 0
-410 152 0
-410 -43 0
-410 -186 0
410 27 -179 -152 43 186 0
406 407 408 409 410 0
-411 -91 0
-411 -95 0
-411 124 0
-411 -67 0
-411 125 0
411 91 95 -124 67 -125 0
-412 180 0
-412 151 0
-412 -56 0
-412 -36 0
-412 -141 0
412 -180 -151 56 36 141 0
-413 -1 0
-413 124 0
-413 -85 0
-413 59 0
-413 10 0
413 1 -124 85 -59 -10 0
-414 -166 0
-414 -185 0
-414 26 0
-414 7 0
-414 -67 0
414 166 185 -26 -7 67 0
-415 30 0
-415 132 0
-415 -23 0
-415 -16 0
-415 -92 0
415 -30 -132 23 16 92 0
411 412 413 414 415 0
-416 53 0
-416 175 0
-416 -183 0
-416 18 0
-416 -2 0
416 -53 -175 183 -18 2 0
-417 53 0
-417 55 0
-417 -13 0
-417 -9 0
-417 67 0
417 -53 -55 13 9 -67 0
-418 -48 0
-418 -161 0
-418 -135 0
-418 54 0
-418 -163 0
418 48 161 135 -54 163 0
-419 -126 0
-419 -42 0
-419 -114 0
-419 -20 0
-419 -73 0
419 126 42 114 20 73 0
-420 190 0
-420 168 0
-420 32 0
-420 8 0
-420 -24 0
420 -190 -168 -32 -8 24 0
416 417 418 419 420 0
-421 -51 0
-421 -48 0
-421 -96 0
-421 89 0
-421 -66 0
421 51 48 96 -89 66 0
-422 17 0
-422 -172 0
-422 61 0
-422 -6 0
-422 160 0
422 -17 172 -61 6 -160 0
-423 -42 0
-423 132 0
-423 -72 0
-423 -166 0
-423 -186 0
423 42 -132 72 166 186 0
-424 -18 0
-424 166 0
-424 134 0
-424 185 0
-424 -102 0
424 18 -166 -134 -185 102 0
-425 165 0
-425 -138 0
-425 39 0
-425 -190 0
-425 141 0
425 -165 138 -39 190 -141 0
421 422 423 424 425 0
-426 175 0
-426 49 0
-426 -81 0
-426 109 0
-426 -40 0
426 -175 -49 81 -109 40 0
-427 -147 0
-427 14 0
-427 10 0
-427 184 0
-427 -72 0
427 147 -14 -10 -184 72 0
-428 7 0
-428 138 0
-428 103 0
-428 16 0
-428 -38 0
428 -7 -138 -103 -16 38 0
-429 -59 0
-429 26 0
-429 189 0
-429 146 0
-429 110 0
429 59 -26 -189 -146 -110 0
-430 -47 0
-430 64 0
-430 165 0
-430 190 0
-430 117 0
430 47 -64 -165 -190 -117 0
426 427 428 429 430 0
